20
99.0
0 19 58.66 5.41
1 18 31.74 4.92
2 17 56.02 6.04
3 16 47.22 5.37
4 15 55.03 4.1
5 14 55.1 4.82
6 13 50.86 3.97
7 12 47.13 3.86
8 11 37.71 5.46
9 10 51.05 4.23
10 9 54.0 5.15
11 8 45.43 4.34
12 7 44.9 4.61
13 6 51.86 5.02
14 5 55.61 5.69
15 4 62.87 2.47
16 3 38.41 8.78
17 2 58.36 1.2
18 1 86.99 1.22
